SECTION Graph
Nodes 720
Edges 1269
E 1 2 5
E 2 3 5
E 3 4 5
E 4 5 5
E 5 6 5
E 7 8 5
E 8 9 5
E 9 10 5
E 10 11 5
E 11 12 5
E 12 13 5
E 13 14 5
E 14 15 5
E 15 16 5
E 16 17 5
E 17 18 5
E 18 19 5
E 19 20 5
E 20 21 5
E 21 22 5
E 22 23 5
E 23 24 5
E 24 25 5
E 25 26 5
E 26 27 5
E 27 28 5
E 28 29 5
E 29 30 5
E 30 31 5
E 32 33 5
E 33 34 5
E 34 35 5
E 35 36 5
E 36 37 5
E 37 38 5
E 38 39 5
E 39 40 5
E 40 41 5
E 41 42 5
E 42 43 5
E 1 44 13
E 2 45 13
E 3 46 13
E 4 47 13
E 6 48 13
E 7 50 13
E 8 51 13
E 9 52 13
E 10 53 13
E 11 54 13
E 12 55 13
E 13 56 13
E 14 57 13
E 15 58 13
E 16 59 13
E 17 60 13
E 18 61 13
E 19 62 13
E 20 63 13
E 21 64 13
E 22 65 13
E 23 66 13
E 24 67 13
E 25 68 13
E 26 69 13
E 27 70 13
E 28 71 13
E 29 72 13
E 30 73 13
E 31 74 13
E 32 75 13
E 33 76 13
E 34 77 13
E 36 79 13
E 38 80 13
E 40 82 13
E 41 83 13
E 42 84 13
E 43 85 13
E 44 45 5
E 45 46 5
E 46 47 5
E 48 49 5
E 49 50 5
E 50 51 5
E 51 52 5
E 52 53 5
E 53 54 5
E 54 55 5
E 55 56 5
E 56 57 5
E 57 58 5
E 58 59 5
E 59 60 5
E 60 61 5
E 61 62 5
E 62 63 5
E 63 64 5
E 64 65 5
E 65 66 5
E 66 67 5
E 67 68 5
E 68 69 5
E 69 70 5
E 70 71 5
E 71 72 5
E 72 73 5
E 73 74 5
E 75 76 5
E 76 77 5
E 77 78 5
E 78 79 5
E 80 81 5
E 81 82 5
E 82 83 5
E 83 84 5
E 84 85 5
E 44 86 13
E 45 87 13
E 47 88 13
E 48 89 13
E 49 90 13
E 50 91 13
E 51 92 13
E 52 93 13
E 53 94 13
E 54 95 13
E 55 96 13
E 57 98 13
E 58 99 13
E 59 100 13
E 60 101 13
E 61 102 13
E 63 103 13
E 64 104 13
E 65 105 13
E 66 106 13
E 67 107 13
E 68 108 13
E 70 109 13
E 71 110 13
E 72 111 13
E 73 112 13
E 74 113 13
E 75 115 13
E 76 116 13
E 77 117 13
E 78 118 13
E 79 119 13
E 80 120 13
E 81 121 13
E 82 122 13
E 85 125 13
E 86 87 5
E 89 90 5
E 90 91 5
E 91 92 5
E 92 93 5
E 93 94 5
E 94 95 5
E 95 96 5
E 96 97 5
E 97 98 5
E 98 99 5
E 99 100 5
E 100 101 5
E 101 102 5
E 103 104 5
E 104 105 5
E 105 106 5
E 106 107 5
E 107 108 5
E 109 110 5
E 110 111 5
E 111 112 5
E 112 113 5
E 113 114 5
E 114 115 5
E 115 116 5
E 116 117 5
E 117 118 5
E 118 119 5
E 120 121 5
E 121 122 5
E 122 123 5
E 123 124 5
E 124 125 5
E 86 126 13
E 87 127 13
E 88 128 13
E 89 130 13
E 90 131 13
E 91 132 13
E 92 133 13
E 93 134 13
E 94 135 13
E 95 136 13
E 96 137 13
E 97 138 13
E 98 139 13
E 99 140 13
E 100 141 13
E 101 142 13
E 102 143 13
E 103 144 13
E 104 145 13
E 105 146 13
E 107 147 13
E 108 148 13
E 109 149 13
E 110 150 13
E 111 151 13
E 112 152 13
E 113 153 13
E 114 154 13
E 115 155 13
E 117 157 13
E 118 158 13
E 119 159 13
E 120 161 13
E 121 162 13
E 122 163 13
E 123 164 13
E 124 165 13
E 125 166 13
E 126 127 5
E 128 129 5
E 129 130 5
E 130 131 5
E 131 132 5
E 132 133 5
E 133 134 5
E 134 135 5
E 135 136 5
E 136 137 5
E 137 138 5
E 138 139 5
E 139 140 5
E 140 141 5
E 141 142 5
E 142 143 5
E 144 145 5
E 145 146 5
E 147 148 5
E 149 150 5
E 150 151 5
E 151 152 5
E 152 153 5
E 153 154 5
E 154 155 5
E 155 156 5
E 156 157 5
E 157 158 5
E 158 159 5
E 159 160 5
E 160 161 5
E 161 162 5
E 162 163 5
E 163 164 5
E 164 165 5
E 165 166 5
E 126 167 13
E 127 168 13
E 128 170 13
E 129 171 13
E 130 172 13
E 131 173 13
E 132 174 13
E 133 175 13
E 134 176 13
E 135 177 13
E 136 178 13
E 139 181 13
E 140 182 13
E 141 183 13
E 142 184 13
E 143 185 13
E 144 187 13
E 145 188 13
E 146 189 13
E 147 190 13
E 148 191 13
E 149 193 13
E 150 194 13
E 151 195 13
E 154 198 13
E 156 199 13
E 157 200 13
E 158 201 13
E 159 202 13
E 160 203 13
E 161 204 13
E 162 205 13
E 163 206 13
E 164 207 13
E 165 208 13
E 166 209 13
E 167 168 5
E 168 169 5
E 169 170 5
E 170 171 5
E 171 172 5
E 172 173 5
E 173 174 5
E 174 175 5
E 175 176 5
E 176 177 5
E 177 178 5
E 178 179 5
E 179 180 5
E 180 181 5
E 181 182 5
E 182 183 5
E 183 184 5
E 184 185 5
E 185 186 5
E 186 187 5
E 187 188 5
E 188 189 5
E 190 191 5
E 191 192 5
E 192 193 5
E 193 194 5
E 194 195 5
E 195 196 5
E 196 197 5
E 197 198 5
E 199 200 5
E 200 201 5
E 201 202 5
E 202 203 5
E 203 204 5
E 204 205 5
E 205 206 5
E 206 207 5
E 207 208 5
E 208 209 5
E 167 210 13
E 168 211 13
E 169 212 13
E 170 213 13
E 171 214 13
E 172 215 13
E 175 218 13
E 176 219 13
E 178 220 13
E 179 221 13
E 180 222 13
E 181 223 13
E 182 224 13
E 183 225 13
E 184 226 13
E 185 227 13
E 186 228 13
E 187 229 13
E 188 230 13
E 189 231 13
E 190 233 13
E 191 234 13
E 192 235 13
E 193 236 13
E 194 237 13
E 195 238 13
E 196 239 13
E 197 240 13
E 198 241 13
E 199 242 13
E 200 243 13
E 201 244 13
E 202 245 13
E 204 247 13
E 205 248 13
E 206 249 13
E 207 250 13
E 208 251 13
E 209 252 13
E 210 211 5
E 211 212 5
E 212 213 5
E 213 214 5
E 214 215 5
E 215 216 5
E 216 217 5
E 217 218 5
E 218 219 5
E 220 221 5
E 221 222 5
E 222 223 5
E 223 224 5
E 224 225 5
E 225 226 5
E 226 227 5
E 227 228 5
E 228 229 5
E 229 230 5
E 230 231 5
E 231 232 5
E 232 233 5
E 233 234 5
E 234 235 5
E 235 236 5
E 236 237 5
E 237 238 5
E 238 239 5
E 239 240 5
E 240 241 5
E 242 243 5
E 243 244 5
E 244 245 5
E 245 246 5
E 246 247 5
E 247 248 5
E 248 249 5
E 249 250 5
E 250 251 5
E 251 252 5
E 211 253 13
E 213 254 13
E 214 255 13
E 215 256 13
E 216 257 13
E 217 258 13
E 219 259 13
E 220 260 13
E 221 261 13
E 222 262 13
E 223 263 13
E 224 264 13
E 225 265 13
E 226 266 13
E 229 269 13
E 230 270 13
E 231 271 13
E 232 272 13
E 233 273 13
E 234 274 13
E 235 275 13
E 238 278 13
E 239 279 13
E 240 280 13
E 241 281 13
E 242 283 13
E 243 284 13
E 244 285 13
E 245 286 13
E 246 287 13
E 247 288 13
E 248 289 13
E 249 290 13
E 250 291 13
E 251 292 13
E 252 293 13
E 254 255 5
E 255 256 5
E 256 257 5
E 257 258 5
E 260 261 5
E 261 262 5
E 262 263 5
E 263 264 5
E 264 265 5
E 265 266 5
E 266 267 5
E 267 268 5
E 268 269 5
E 269 270 5
E 270 271 5
E 271 272 5
E 272 273 5
E 273 274 5
E 274 275 5
E 275 276 5
E 276 277 5
E 277 278 5
E 278 279 5
E 279 280 5
E 280 281 5
E 281 282 5
E 282 283 5
E 283 284 5
E 284 285 5
E 285 286 5
E 286 287 5
E 287 288 5
E 288 289 5
E 289 290 5
E 290 291 5
E 291 292 5
E 292 293 5
E 253 294 13
E 254 295 13
E 255 296 13
E 256 297 13
E 257 298 13
E 258 299 13
E 259 300 13
E 260 302 13
E 261 303 13
E 262 304 13
E 263 305 13
E 264 306 13
E 265 307 13
E 266 308 13
E 267 309 13
E 268 310 13
E 269 311 13
E 270 312 13
E 271 313 13
E 272 314 13
E 273 315 13
E 274 316 13
E 275 317 13
E 276 318 13
E 277 319 13
E 278 320 13
E 281 323 13
E 282 324 13
E 283 325 13
E 284 326 13
E 285 327 13
E 286 328 13
E 289 331 13
E 290 332 13
E 291 333 13
E 292 334 13
E 293 335 13
E 295 296 5
E 296 297 5
E 297 298 5
E 298 299 5
E 300 301 5
E 301 302 5
E 302 303 5
E 303 304 5
E 304 305 5
E 305 306 5
E 306 307 5
E 307 308 5
E 308 309 5
E 309 310 5
E 310 311 5
E 311 312 5
E 312 313 5
E 313 314 5
E 314 315 5
E 315 316 5
E 316 317 5
E 317 318 5
E 318 319 5
E 319 320 5
E 320 321 5
E 321 322 5
E 322 323 5
E 323 324 5
E 324 325 5
E 325 326 5
E 326 327 5
E 327 328 5
E 328 329 5
E 329 330 5
E 330 331 5
E 331 332 5
E 332 333 5
E 333 334 5
E 334 335 5
E 294 337 13
E 295 339 13
E 296 340 13
E 297 341 13
E 298 342 13
E 299 343 13
E 300 345 13
E 301 346 13
E 302 347 13
E 303 348 13
E 304 349 13
E 305 350 13
E 306 351 13
E 307 352 13
E 308 353 13
E 309 354 13
E 310 355 13
E 311 356 13
E 312 357 13
E 313 358 13
E 314 359 13
E 315 360 13
E 316 361 13
E 317 362 13
E 318 363 13
E 319 364 13
E 320 365 13
E 321 366 13
E 322 367 13
E 323 368 13
E 324 369 13
E 325 370 13
E 326 371 13
E 327 372 13
E 330 375 13
E 331 376 13
E 332 377 13
E 333 378 13
E 334 379 13
E 335 380 13
E 336 337 5
E 337 338 5
E 338 339 5
E 339 340 5
E 340 341 5
E 341 342 5
E 342 343 5
E 343 344 5
E 344 345 5
E 345 346 5
E 346 347 5
E 347 348 5
E 348 349 5
E 349 350 5
E 350 351 5
E 351 352 5
E 352 353 5
E 353 354 5
E 354 355 5
E 355 356 5
E 356 357 5
E 357 358 5
E 358 359 5
E 359 360 5
E 360 361 5
E 361 362 5
E 362 363 5
E 363 364 5
E 364 365 5
E 365 366 5
E 366 367 5
E 367 368 5
E 368 369 5
E 369 370 5
E 370 371 5
E 371 372 5
E 372 373 5
E 373 374 5
E 374 375 5
E 375 376 5
E 376 377 5
E 377 378 5
E 378 379 5
E 379 380 5
E 336 381 13
E 337 382 13
E 338 383 13
E 339 384 13
E 340 385 13
E 341 386 13
E 342 387 13
E 343 388 13
E 344 389 13
E 345 390 13
E 346 391 13
E 347 392 13
E 348 393 13
E 351 396 13
E 352 397 13
E 354 398 13
E 355 399 13
E 356 400 13
E 357 401 13
E 358 402 13
E 359 403 13
E 361 404 13
E 362 405 13
E 363 406 13
E 364 407 13
E 365 408 13
E 366 409 13
E 367 410 13
E 368 411 13
E 369 412 13
E 370 413 13
E 371 414 13
E 372 415 13
E 373 416 13
E 374 417 13
E 375 418 13
E 376 419 13
E 377 420 13
E 378 421 13
E 379 422 13
E 380 423 13
E 381 382 5
E 382 383 5
E 383 384 5
E 384 385 5
E 385 386 5
E 386 387 5
E 387 388 5
E 388 389 5
E 389 390 5
E 390 391 5
E 391 392 5
E 392 393 5
E 393 394 5
E 394 395 5
E 395 396 5
E 396 397 5
E 398 399 5
E 399 400 5
E 400 401 5
E 401 402 5
E 402 403 5
E 404 405 5
E 405 406 5
E 406 407 5
E 407 408 5
E 408 409 5
E 409 410 5
E 410 411 5
E 411 412 5
E 412 413 5
E 413 414 5
E 414 415 5
E 415 416 5
E 416 417 5
E 417 418 5
E 418 419 5
E 419 420 5
E 420 421 5
E 421 422 5
E 422 423 5
E 381 424 13
E 384 427 13
E 385 428 13
E 386 429 13
E 387 430 13
E 388 431 13
E 389 432 13
E 390 433 13
E 391 434 13
E 392 435 13
E 393 436 13
E 394 437 13
E 395 438 13
E 396 439 13
E 397 440 13
E 398 441 13
E 400 442 13
E 401 443 13
E 402 444 13
E 403 445 13
E 404 446 13
E 405 447 13
E 406 448 13
E 407 449 13
E 408 450 13
E 409 451 13
E 410 452 13
E 411 453 13
E 412 454 13
E 413 455 13
E 414 456 13
E 415 457 13
E 416 458 13
E 417 459 13
E 418 460 13
E 419 461 13
E 420 462 13
E 421 463 13
E 422 464 13
E 423 465 13
E 424 425 5
E 425 426 5
E 426 427 5
E 427 428 5
E 428 429 5
E 429 430 5
E 430 431 5
E 431 432 5
E 432 433 5
E 433 434 5
E 434 435 5
E 435 436 5
E 436 437 5
E 437 438 5
E 438 439 5
E 439 440 5
E 442 443 5
E 443 444 5
E 444 445 5
E 446 447 5
E 447 448 5
E 448 449 5
E 449 450 5
E 450 451 5
E 451 452 5
E 452 453 5
E 453 454 5
E 454 455 5
E 455 456 5
E 456 457 5
E 457 458 5
E 458 459 5
E 459 460 5
E 460 461 5
E 461 462 5
E 462 463 5
E 463 464 5
E 464 465 5
E 424 466 13
E 425 467 13
E 426 468 13
E 427 469 13
E 428 470 13
E 429 471 13
E 430 472 13
E 431 473 13
E 432 474 13
E 433 475 13
E 434 476 13
E 435 477 13
E 436 478 13
E 437 479 13
E 438 480 13
E 439 481 13
E 440 482 13
E 441 484 13
E 442 485 13
E 443 486 13
E 444 487 13
E 445 488 13
E 446 490 13
E 447 491 13
E 448 492 13
E 449 493 13
E 450 494 13
E 451 495 13
E 452 496 13
E 453 497 13
E 454 498 13
E 455 499 13
E 456 500 13
E 457 501 13
E 458 502 13
E 459 503 13
E 460 504 13
E 461 505 13
E 462 506 13
E 463 507 13
E 464 508 13
E 465 509 13
E 466 467 5
E 467 468 5
E 468 469 5
E 469 470 5
E 470 471 5
E 471 472 5
E 472 473 5
E 473 474 5
E 474 475 5
E 475 476 5
E 476 477 5
E 477 478 5
E 478 479 5
E 479 480 5
E 480 481 5
E 481 482 5
E 482 483 5
E 483 484 5
E 485 486 5
E 486 487 5
E 487 488 5
E 488 489 5
E 489 490 5
E 490 491 5
E 491 492 5
E 492 493 5
E 493 494 5
E 494 495 5
E 495 496 5
E 496 497 5
E 497 498 5
E 498 499 5
E 499 500 5
E 500 501 5
E 501 502 5
E 502 503 5
E 503 504 5
E 504 505 5
E 505 506 5
E 506 507 5
E 507 508 5
E 508 509 5
E 466 510 13
E 467 511 13
E 468 512 13
E 469 513 13
E 470 514 13
E 471 515 13
E 472 516 13
E 473 517 13
E 474 518 13
E 475 519 13
E 476 520 13
E 477 521 13
E 478 522 13
E 479 523 13
E 480 524 13
E 481 525 13
E 482 526 13
E 483 527 13
E 484 528 13
E 485 530 13
E 486 531 13
E 487 532 13
E 488 533 13
E 489 534 13
E 490 535 13
E 491 536 13
E 494 539 13
E 495 540 13
E 496 541 13
E 497 542 13
E 500 545 13
E 503 548 13
E 504 549 13
E 505 550 13
E 506 551 13
E 507 552 13
E 508 553 13
E 509 554 13
E 510 511 5
E 511 512 5
E 512 513 5
E 513 514 5
E 514 515 5
E 515 516 5
E 516 517 5
E 517 518 5
E 518 519 5
E 519 520 5
E 520 521 5
E 521 522 5
E 522 523 5
E 523 524 5
E 524 525 5
E 525 526 5
E 526 527 5
E 527 528 5
E 528 529 5
E 529 530 5
E 530 531 5
E 531 532 5
E 532 533 5
E 533 534 5
E 534 535 5
E 535 536 5
E 536 537 5
E 537 538 5
E 538 539 5
E 539 540 5
E 540 541 5
E 541 542 5
E 542 543 5
E 543 544 5
E 544 545 5
E 545 546 5
E 546 547 5
E 547 548 5
E 548 549 5
E 549 550 5
E 550 551 5
E 551 552 5
E 552 553 5
E 553 554 5
E 511 555 13
E 512 556 13
E 513 557 13
E 514 558 13
E 515 559 13
E 518 562 13
E 519 563 13
E 520 564 13
E 521 565 13
E 522 566 13
E 524 567 13
E 525 568 13
E 526 569 13
E 528 570 13
E 529 571 13
E 530 572 13
E 531 573 13
E 532 574 13
E 533 575 13
E 534 576 13
E 537 579 13
E 538 580 13
E 539 581 13
E 540 582 13
E 541 583 13
E 542 584 13
E 545 587 13
E 547 588 13
E 549 589 13
E 550 590 13
E 551 591 13
E 552 592 13
E 553 593 13
E 554 594 13
E 555 556 5
E 556 557 5
E 557 558 5
E 558 559 5
E 559 560 5
E 560 561 5
E 561 562 5
E 562 563 5
E 563 564 5
E 564 565 5
E 565 566 5
E 567 568 5
E 568 569 5
E 570 571 5
E 571 572 5
E 572 573 5
E 573 574 5
E 574 575 5
E 575 576 5
E 576 577 5
E 577 578 5
E 578 579 5
E 579 580 5
E 580 581 5
E 581 582 5
E 582 583 5
E 583 584 5
E 584 585 5
E 585 586 5
E 586 587 5
E 589 590 5
E 590 591 5
E 591 592 5
E 592 593 5
E 593 594 5
E 555 595 13
E 556 596 13
E 557 597 13
E 559 598 13
E 560 599 13
E 561 600 13
E 564 603 13
E 565 604 13
E 566 605 13
E 567 606 13
E 568 607 13
E 569 608 13
E 570 609 13
E 571 610 13
E 573 612 13
E 576 615 13
E 577 616 13
E 578 617 13
E 579 618 13
E 580 619 13
E 581 620 13
E 582 621 13
E 583 622 13
E 584 623 13
E 585 624 13
E 586 625 13
E 587 626 13
E 588 627 13
E 589 628 13
E 590 629 13
E 591 630 13
E 592 631 13
E 593 632 13
E 594 633 13
E 595 596 5
E 596 597 5
E 598 599 5
E 599 600 5
E 600 601 5
E 601 602 5
E 602 603 5
E 603 604 5
E 604 605 5
E 606 607 5
E 607 608 5
E 609 610 5
E 610 611 5
E 611 612 5
E 612 613 5
E 613 614 5
E 614 615 5
E 615 616 5
E 616 617 5
E 617 618 5
E 618 619 5
E 619 620 5
E 620 621 5
E 621 622 5
E 622 623 5
E 623 624 5
E 624 625 5
E 625 626 5
E 628 629 5
E 629 630 5
E 630 631 5
E 631 632 5
E 632 633 5
E 595 635 13
E 596 636 13
E 597 637 13
E 598 638 13
E 599 639 13
E 600 640 13
E 602 642 13
E 603 643 13
E 604 644 13
E 605 645 13
E 606 647 13
E 607 648 13
E 608 649 13
E 609 651 13
E 610 652 13
E 611 653 13
E 612 654 13
E 613 655 13
E 614 656 13
E 615 657 13
E 616 658 13
E 617 659 13
E 618 660 13
E 619 661 13
E 620 662 13
E 621 663 13
E 622 664 13
E 623 665 13
E 624 666 13
E 625 667 13
E 626 668 13
E 627 670 13
E 628 672 13
E 629 673 13
E 630 674 13
E 631 675 13
E 632 676 13
E 633 677 13
E 634 635 5
E 635 636 5
E 636 637 5
E 638 639 5
E 639 640 5
E 640 641 5
E 641 642 5
E 642 643 5
E 643 644 5
E 644 645 5
E 645 646 5
E 646 647 5
E 647 648 5
E 648 649 5
E 649 650 5
E 650 651 5
E 651 652 5
E 652 653 5
E 653 654 5
E 654 655 5
E 655 656 5
E 656 657 5
E 657 658 5
E 658 659 5
E 659 660 5
E 660 661 5
E 661 662 5
E 662 663 5
E 663 664 5
E 664 665 5
E 665 666 5
E 666 667 5
E 667 668 5
E 668 669 5
E 669 670 5
E 670 671 5
E 671 672 5
E 672 673 5
E 673 674 5
E 674 675 5
E 675 676 5
E 676 677 5
E 634 678 13
E 635 679 13
E 637 680 13
E 638 682 13
E 639 683 13
E 640 684 13
E 641 685 13
E 642 686 13
E 643 687 13
E 645 689 13
E 646 690 13
E 647 691 13
E 648 692 13
E 649 693 13
E 650 694 13
E 651 695 13
E 652 696 13
E 655 699 13
E 656 700 13
E 657 701 13
E 658 702 13
E 659 703 13
E 660 704 13
E 661 705 13
E 663 706 13
E 664 707 13
E 665 708 13
E 666 709 13
E 667 710 13
E 668 711 13
E 669 712 13
E 670 713 13
E 671 714 13
E 672 715 13
E 673 716 13
E 674 717 13
E 675 718 13
E 676 719 13
E 677 720 13
E 678 679 5
E 680 681 5
E 681 682 5
E 682 683 5
E 683 684 5
E 684 685 5
E 685 686 5
E 686 687 5
E 687 688 5
E 688 689 5
E 689 690 5
E 690 691 5
E 691 692 5
E 692 693 5
E 693 694 5
E 694 695 5
E 695 696 5
E 696 697 5
E 697 698 5
E 698 699 5
E 699 700 5
E 700 701 5
E 701 702 5
E 702 703 5
E 703 704 5
E 704 705 5
E 706 707 5
E 707 708 5
E 708 709 5
E 709 710 5
E 710 711 5
E 711 712 5
E 712 713 5
E 713 714 5
E 714 715 5
E 715 716 5
E 716 717 5
E 717 718 5
E 718 719 5
E 719 720 5
END

SECTION Terminals
Terminals 11
T 34
T 82
T 119
T 151
T 172
T 296
T 342
T 348
T 381
T 425
T 681
END

EOF
